157 300 84 86 65 70 55 89 60 83 73 90 100 94 82 56 50 62 92 72 54 82 85 74 90 54 95 71 92 59 69 96 70 78 55 86 98 60 99 57 67 71 71 92 89 77 98 89 89 89 60 94 70 70 92 59 74 60 54 90 94 99 59 64 76 64 100 73 99 98 55 66 93 50 57 81 78 54 95 91 67 79 84 87 99 100 70 97 85 75 60 78 73 69 92 73 57 65 70 56 87 100 97 79 50 53 85 52 82 53 93 99 82 51 85 55 75 79 51 59 78 62 88 50 55 79 98 63 69 68 94 55 67 90 59 92 93 68 68 99 96 86 97 77 87 55 56 61 58 58 71 87 95 83 61 74 86 59 87 